<instance format="XCSP3" type="COP">
  <variables>
    <array id="x" size="[40]"> 0 1 </array>
  </variables>
  <constraints>
    <sum>
      <list> x[] </list>
      <coeffs> 37 14 11 8 12 11 4 4 28 23 12 4 1 19 6 20 27 24 33 23 16 1 32 1 8 17 2 11 22 16 34 11 10 17 35 5 11 22 5 23 </coeffs>
      <condition> (le,150) </condition>
    </sum>
  </constraints>
  <objectives>
    <maximize type="sum">
      <list> x[] </list>
      <coeffs> 43 24 15 68 97 1 45 95 30 39 86 17 31 5 12 20 10 37 70 6 74 78 66 73 74 75 47 42 8 38 44 73 80 93 48 19 59 51 95 2 </coeffs>
    </maximize>
  </objectives>
</instance>
